
Gurobi 8.1.1 (win64, Python) logging started 10/07/19 21:56:52

Academic license - for non-commercial use only
Optimize a model with 12 rows, 19 columns and 32 nonzeros
Variable types: 0 continuous, 19 integer (19 binary)
Coefficient statistics:
  Matrix range     [1e+00, 1e+00]
  Objective range  [5e+00, 8e+01]
  Bounds range     [1e+00, 1e+00]
  RHS range        [1e+00, 1e+00]
Found heuristic solution: objective 117.0000000
Presolve removed 12 rows and 19 columns
Presolve time: 0.00s
Presolve: All rows and columns removed

Explored 0 nodes (0 simplex iterations) in 0.01 seconds
Thread count was 1 (of 8 available processors)

Solution count 2: 63 117 

Optimal solution found (tolerance 1.00e-04)
Best objective 6.300000000000e+01, best bound 6.300000000000e+01, gap 0.0000%
